<?xml version = "1.0" standalone="yes"?>
<!-- This file has been generated by DOcplex version 2.23.222  -->
<CPLEXSolution version="1.0">
 <header
   problemName="CVRP"
   objectiveValue="14631.8"
  />
 <variables>
  <variable name="x_0_1" index="0" value="1.00000"/>
  <variable name="x_0_2" index="1" value="1.00000"/>
  <variable name="x_0_5" index="4" value="1.00000"/>
  <variable name="x_0_9" index="8" value="1.00000"/>
  <variable name="x_0_10" index="9" value="1.00000"/>
  <variable name="x_0_11" index="10" value="1.00000"/>
  <variable name="x_0_13" index="12" value="1.00000"/>
  <variable name="x_0_15" index="14" value="1.00000"/>
  <variable name="x_0_16" index="15" value="1.00000"/>
  <variable name="x_0_17" index="16" value="1.00000"/>
  <variable name="x_0_18" index="17" value="1.00000"/>
  <variable name="x_0_19" index="18" value="1.00000"/>
  <variable name="x_0_20" index="19" value="1.00000"/>
  <variable name="x_0_22" index="21" value="1.00000"/>
  <variable name="x_0_23" index="22" value="1.00000"/>
  <variable name="x_0_24" index="23" value="1.00000"/>
  <variable name="x_1_7" index="30" value="1.00000"/>
  <variable name="x_2_21" index="68" value="1.00000"/>
  <variable name="x_3_0" index="72" value="1.00000"/>
  <variable name="x_4_0" index="96" value="1.00000"/>
  <variable name="x_5_0" index="120" value="1.00000"/>
  <variable name="x_6_12" index="155" value="1.00000"/>
  <variable name="x_7_0" index="168" value="1.00000"/>
  <variable name="x_8_0" index="192" value="1.00000"/>
  <variable name="x_9_0" index="216" value="1.00000"/>
  <variable name="x_10_6" index="246" value="1.00000"/>
  <variable name="x_11_4" index="268" value="1.00000"/>
  <variable name="x_12_0" index="288" value="1.00000"/>
  <variable name="x_13_8" index="320" value="1.00000"/>
  <variable name="x_14_0" index="336" value="1.00000"/>
  <variable name="x_15_0" index="360" value="1.00000"/>
  <variable name="x_16_0" index="384" value="1.00000"/>
  <variable name="x_17_0" index="408" value="1.00000"/>
  <variable name="x_18_0" index="432" value="1.00000"/>
  <variable name="x_19_0" index="456" value="1.00000"/>
  <variable name="x_20_3" index="483" value="1.00000"/>
  <variable name="x_21_0" index="504" value="1.00000"/>
  <variable name="x_22_0" index="528" value="1.00000"/>
  <variable name="x_23_14" index="566" value="1.00000"/>
  <variable name="x_24_0" index="576" value="1.00000"/>
  <variable name="u_1" index="600" value="11.00000"/>
  <variable name="u_2" index="601" value="17.00000"/>
  <variable name="u_3" index="602" value="26.00000"/>
  <variable name="u_4" index="603" value="26.00000"/>
  <variable name="u_5" index="604" value="21.00000"/>
  <variable name="u_6" index="605" value="20.00000"/>
  <variable name="u_7" index="606" value="21.00000"/>
  <variable name="u_8" index="607" value="24.00000"/>
  <variable name="u_9" index="608" value="15.00000"/>
  <variable name="u_10" index="609" value="15.00000"/>
  <variable name="u_11" index="610" value="14.00000"/>
  <variable name="u_12" index="611" value="26.00000"/>
  <variable name="u_13" index="612" value="20.00000"/>
  <variable name="u_14" index="613" value="24.00000"/>
  <variable name="u_15" index="614" value="23.00000"/>
  <variable name="u_16" index="615" value="21.00000"/>
  <variable name="u_17" index="616" value="18.00000"/>
  <variable name="u_18" index="617" value="23.00000"/>
  <variable name="u_19" index="618" value="20.00000"/>
  <variable name="u_20" index="619" value="14.00000"/>
  <variable name="u_21" index="620" value="26.00000"/>
  <variable name="u_22" index="621" value="26.00000"/>
  <variable name="u_23" index="622" value="12.00000"/>
  <variable name="u_24" index="623" value="15.00000"/>
 </variables>
</CPLEXSolution>
